* ENCODING=ISO-8859-1
NAME          CPLEX
ROWS
 N  obj1    
 G  c1      
 G  c2      
 G  c3      
 G  c4      
 G  c5      
 G  c6      
 G  c7      
 G  c8      
 G  c9      
 G  c10     
 G  c11     
 G  c12     
 G  c13     
 G  c14     
 G  c15     
 G  c16     
 G  c17     
 G  c18     
 G  c19     
 G  c20     
 G  c21     
 G  c22     
 G  c23     
 G  c24     
 G  c25     
 G  c26     
 G  c27     
 G  c28     
 G  c29     
 G  c30     
 G  c31     
 G  c32     
 G  c33     
 G  c34     
 G  c35     
 G  c36     
 G  c37     
 G  c38     
 G  c39     
 G  c40     
COLUMNS
    MARK0000  'MARKER'                 'INTORG'
    x1        obj1                            1
    x1        c4                            749
    x1        c18                           665
    x1        c35                           396
    x1        c39                           637
    x2        obj1                            1
    x2        c6                            185
    x2        c11                           203
    x2        c13                           281
    x2        c26                           642
    x2        c30                           342
    x3        obj1                            1
    x3        c7                            870
    x3        c23                           569
    x3        c27                           191
    x3        c30                           238
    x3        c33                           402
    x4        obj1                            1
    x4        c1                            982
    x4        c5                            590
    x4        c14                           902
    x4        c29                           457
    x4        c30                           368
    x5        obj1                            1
    x5        c1                            778
    x5        c6                            680
    x5        c14                           735
    x5        c26                           848
    x5        c30                           896
    x5        c39                           154
    x6        obj1                            1
    x6        c6                            941
    x6        c14                           964
    x6        c19                           299
    x6        c39                           486
    x7        obj1                            1
    x7        c11                           369
    x7        c17                           577
    x7        c23                           931
    x7        c24                           826
    x7        c40                           176
    x8        obj1                            1
    x8        c20                           583
    x8        c24                           313
    x8        c30                           628
    x8        c34                           277
    x8        c38                           121
    x9        obj1                            1
    x9        c8                            419
    x9        c26                           880
    x10       obj1                            1
    x10       c5                            557
    x10       c16                           186
    x10       c18                           365
    x10       c19                           438
    x11       obj1                            1
    x11       c10                           837
    x11       c22                           478
    x12       obj1                            1
    x12       c1                            792
    x12       c4                            486
    x12       c9                            853
    x12       c19                           225
    x12       c23                           149
    x12       c38                           823
    x13       obj1                            1
    x13       c9                            573
    x14       obj1                            1
    x14       c11                           562
    x14       c22                           216
    x14       c37                           186
    x15       obj1                            1
    x15       c9                            451
    x15       c12                           657
    x15       c29                           161
    x15       c37                           500
    x16       obj1                            1
    x16       c4                            453
    x16       c17                           427
    x16       c21                           804
    x16       c22                           728
    x16       c27                           460
    x16       c29                           881
    x16       c35                           611
    x17       obj1                            1
    x17       c5                            734
    x17       c16                           663
    x17       c36                           487
    x18       obj1                            1
    x18       c4                            212
    x18       c5                            206
    x18       c9                            117
    x18       c28                           842
    x18       c30                           911
    x19       obj1                            1
    x19       c14                           236
    x19       c26                           571
    x20       obj1                            1
    x20       c4                            596
    x20       c9                            487
    x20       c18                           885
    x20       c19                           565
    x20       c22                           252
    x20       c24                           753
    x20       c26                           381
    x20       c27                           847
    x20       c40                           249
    x21       obj1                            1
    x21       c7                            965
    x21       c18                           957
    x21       c37                           784
    x22       obj1                            1
    x22       c10                           993
    x22       c19                           335
    x22       c20                           365
    x22       c26                           718
    x22       c29                           115
    x22       c38                           776
    x23       obj1                            1
    x23       c9                            928
    x23       c24                           348
    x23       c31                           800
    x24       obj1                            1
    x24       c9                            371
    x24       c13                           911
    x24       c16                           896
    x24       c40                           605
    x25       obj1                            1
    x25       c2                            826
    x25       c25                           838
    x25       c31                           390
    x26       obj1                            1
    x26       c1                            881
    x26       c15                           891
    x26       c28                           924
    x26       c36                           339
    x27       obj1                            1
    x27       c18                           819
    x27       c25                           199
    x27       c35                           421
    x28       obj1                            1
    x28       c16                           927
    x28       c25                           546
    x29       obj1                            1
    x29       c27                           978
    x29       c29                           357
    x29       c30                           943
    x29       c32                           372
    x29       c39                           970
    x30       obj1                            1
    x30       c13                           164
    x30       c18                           570
    x30       c25                           610
    x30       c26                           244
    x30       c27                           282
    x30       c34                           521
    x31       obj1                            1
    x31       c1                            674
    x31       c3                            926
    x31       c20                           506
    x31       c26                           497
    x31       c29                           757
    x32       obj1                            1
    x32       c7                            636
    x32       c13                           532
    x32       c38                           653
    x33       obj1                            1
    x33       c17                           321
    x33       c35                           138
    x34       obj1                            1
    x34       c8                            428
    x34       c9                            889
    x34       c18                           285
    x34       c35                           437
    x35       obj1                            1
    x35       c2                            343
    x35       c3                            950
    x35       c28                           623
    x35       c29                           181
    x35       c35                           557
    x35       c37                           162
    x36       obj1                            1
    x36       c5                            724
    x36       c24                           818
    x36       c27                           832
    x37       obj1                            1
    x37       c1                            749
    x37       c5                            149
    x37       c14                           557
    x37       c22                           568
    x37       c35                           769
    x38       obj1                            1
    x38       c2                            233
    x38       c3                            571
    x38       c7                            439
    x38       c26                           309
    x39       obj1                            1
    x39       c7                            305
    x39       c17                           403
    x39       c19                           256
    x39       c28                           778
    x40       obj1                            1
    x40       c12                           543
    x40       c35                           222
    x41       obj1                            1
    x41       c2                            507
    x41       c22                           306
    x41       c30                           384
    x42       obj1                            1
    x42       c5                            541
    x42       c33                           362
    x43       obj1                            1
    x43       c5                            467
    x43       c11                           205
    x43       c23                           461
    x43       c31                           616
    x44       obj1                            1
    x44       c23                           827
    x45       obj1                            1
    x45       c16                           378
    x45       c26                           980
    x46       obj1                            1
    x46       c3                            769
    x46       c4                            661
    x46       c10                           168
    x46       c15                           608
    x46       c32                           805
    x47       obj1                            1
    x47       c16                           952
    x47       c19                           810
    x47       c30                           113
    x47       c38                           114
    x48       obj1                            1
    x48       c12                           862
    x48       c13                           379
    x48       c35                           881
    x48       c37                           381
    x48       c38                           239
    x48       c39                           603
    x49       obj1                            1
    x49       c16                           565
    x50       obj1                            1
    x50       c9                            501
    x50       c20                           533
    x50       c21                           635
    x50       c24                           870
    x50       c39                           779
    x51       obj1                            1
    x51       c8                            308
    x51       c27                           742
    x51       c32                           685
    x52       obj1                            1
    x52       c16                           441
    x52       c20                           438
    x52       c38                           813
    x53       obj1                            1
    x53       c35                           451
    x53       c36                           391
    x54       obj1                            1
    x54       c21                           797
    x54       c24                           386
    x54       c29                           323
    x55       obj1                            1
    x55       c1                            839
    x55       c37                           275
    x56       obj1                            1
    x56       c9                            194
    x56       c17                           128
    x56       c28                           234
    x57       obj1                            1
    x57       c12                           647
    x57       c15                           315
    x57       c27                           776
    x57       c33                           770
    x57       c37                           943
    x57       c39                           650
    x58       obj1                            1
    x58       c9                            913
    x58       c29                           113
    x58       c37                           852
    x59       obj1                            1
    x59       c3                            281
    x59       c14                           187
    x59       c35                           606
    x60       obj1                            1
    x60       c12                           612
    x60       c17                           474
    x60       c30                           641
    x60       c39                           796
    x61       obj1                            1
    x61       c3                            294
    x61       c8                            654
    x61       c10                           709
    x61       c22                           511
    x61       c23                           597
    x61       c34                           813
    x61       c37                           973
    x62       obj1                            1
    x62       c18                           503
    x62       c19                           981
    x62       c22                           892
    x62       c32                           307
    x63       obj1                            1
    x63       c18                           517
    x63       c32                           305
    x64       obj1                            1
    x64       c11                           153
    x64       c28                           939
    x64       c29                           243
    x65       obj1                            1
    x65       c24                           448
    x66       obj1                            1
    x66       c19                           969
    x66       c30                           572
    x66       c35                           893
    x66       c36                           985
    x66       c40                           267
    x67       obj1                            1
    x67       c9                            839
    x67       c15                           700
    x67       c38                           461
    x68       obj1                            1
    x68       c8                            409
    x68       c10                           866
    x68       c17                           750
    x68       c22                           899
    x68       c26                           330
    x69       obj1                            1
    x69       c10                           749
    x69       c18                           832
    x69       c33                           301
    x70       obj1                            1
    x70       c6                            846
    x70       c11                           541
    x70       c18                           539
    x70       c21                           208
    x70       c23                           903
    x70       c24                           872
    x70       c29                           624
    x71       obj1                            1
    x71       c16                           544
    x71       c34                           847
    x72       obj1                            1
    x72       c1                            301
    x72       c2                            316
    x72       c18                           814
    x72       c28                           993
    x73       obj1                            1
    x73       c5                            811
    x73       c14                           287
    x73       c39                           291
    x74       obj1                            1
    x74       c5                            108
    x74       c12                           852
    x74       c17                           227
    x74       c19                           349
    x74       c24                           115
    x74       c28                           949
    x75       obj1                            1
    x75       c4                            727
    x75       c5                            678
    x76       obj1                            1
    x76       c10                           802
    x76       c15                           565
    x76       c17                           379
    x76       c27                           141
    x77       obj1                            1
    x77       c12                           870
    x77       c14                           256
    x77       c15                           857
    x77       c22                           463
    x77       c25                           658
    x78       obj1                            1
    x78       c12                           617
    x78       c31                           770
    x78       c37                           171
    x79       obj1                            1
    x79       c3                            503
    x79       c5                            779
    x79       c7                            587
    x79       c22                           439
    x79       c39                           104
    x80       obj1                            1
    x80       c22                           962
    x80       c24                           238
    x80       c27                           398
    x80       c30                           818
    x80       c31                           214
    MARK0001  'MARKER'                 'INTEND'
RHS
    rhs       c1                           2998
    rhs       c2                           1113
    rhs       c3                           2147
    rhs       c4                           1942
    rhs       c5                           3172
    rhs       c6                           1326
    rhs       c7                           1901
    rhs       c8                           1109
    rhs       c9                           3558
    rhs       c10                          2562
    rhs       c11                          1017
    rhs       c12                          2830
    rhs       c13                          1134
    rhs       c14                          2062
    rhs       c15                          1968
    rhs       c16                          2776
    rhs       c17                          1843
    rhs       c18                          3876
    rhs       c19                          2614
    rhs       c20                          1213
    rhs       c21                          1222
    rhs       c22                          3357
    rhs       c23                          2219
    rhs       c24                          2994
    rhs       c25                          1426
    rhs       c26                          3200
    rhs       c27                          2824
    rhs       c28                          3141
    rhs       c29                          2106
    rhs       c30                          3427
    rhs       c31                          1395
    rhs       c32                          1237
    rhs       c33                           918
    rhs       c34                          1229
    rhs       c35                          3191
    rhs       c36                          1101
    rhs       c37                          2614
    rhs       c38                          2000
    rhs       c39                          2735
    rhs       c40                           649
BOUNDS
 LI bnd       x1        0
 LI bnd       x2        0
 LI bnd       x3        0
 LI bnd       x4        0
 LI bnd       x5        0
 LI bnd       x6        0
 LI bnd       x7        0
 LI bnd       x8        0
 LI bnd       x9        0
 LI bnd       x10       0
 LI bnd       x11       0
 LI bnd       x12       0
 LI bnd       x13       0
 LI bnd       x14       0
 LI bnd       x15       0
 LI bnd       x16       0
 LI bnd       x17       0
 LI bnd       x18       0
 LI bnd       x19       0
 LI bnd       x20       0
 LI bnd       x21       0
 LI bnd       x22       0
 LI bnd       x23       0
 LI bnd       x24       0
 LI bnd       x25       0
 LI bnd       x26       0
 LI bnd       x27       0
 LI bnd       x28       0
 LI bnd       x29       0
 LI bnd       x30       0
 LI bnd       x31       0
 LI bnd       x32       0
 LI bnd       x33       0
 LI bnd       x34       0
 LI bnd       x35       0
 LI bnd       x36       0
 LI bnd       x37       0
 LI bnd       x38       0
 LI bnd       x39       0
 LI bnd       x40       0
 LI bnd       x41       0
 LI bnd       x42       0
 LI bnd       x43       0
 LI bnd       x44       0
 LI bnd       x45       0
 LI bnd       x46       0
 LI bnd       x47       0
 LI bnd       x48       0
 LI bnd       x49       0
 LI bnd       x50       0
 LI bnd       x51       0
 LI bnd       x52       0
 LI bnd       x53       0
 LI bnd       x54       0
 LI bnd       x55       0
 LI bnd       x56       0
 LI bnd       x57       0
 LI bnd       x58       0
 LI bnd       x59       0
 LI bnd       x60       0
 LI bnd       x61       0
 LI bnd       x62       0
 LI bnd       x63       0
 LI bnd       x64       0
 LI bnd       x65       0
 LI bnd       x66       0
 LI bnd       x67       0
 LI bnd       x68       0
 LI bnd       x69       0
 LI bnd       x70       0
 LI bnd       x71       0
 LI bnd       x72       0
 LI bnd       x73       0
 LI bnd       x74       0
 LI bnd       x75       0
 LI bnd       x76       0
 LI bnd       x77       0
 LI bnd       x78       0
 LI bnd       x79       0
 LI bnd       x80       0
ENDATA
